(set-info :source |printed by MathSAT|)
(declare-fun param_e_s1 () Bool)
(declare-fun call_synapse.garde_s1 () Bool)
(declare-fun param_e_s3 () Bool)
(declare-fun call_synapse.ite3 () Int)
(declare-fun call_synapse.ite15 () Int)
(declare-fun param_e_s2 () Bool)
(declare-fun call_synapse.ite7 () Int)
(declare-fun call_synapse.flby () Int)
(declare-fun _OK_ () Bool)
(declare-fun call_Sofar.flby () Bool)
(declare-fun env () Bool)
(declare-fun call_synapse.ite12 () Int)
(declare-fun call_synapse.ite8 () Int)
(declare-fun call_synapse.ite16 () Int)
(declare-fun call_synapse.ite10 () Int)
(declare-fun call_synapse.ite17 () Int)
(declare-fun call_synapse.garde_s2 () Bool)
(declare-fun call_excludes3.excludes () Bool)
(declare-fun call_synapse.ite4 () Int)
(declare-fun call_synapse.ite5 () Int)
(declare-fun dirty_s () Int)
(declare-fun call_synapse.ite13 () Int)
(declare-fun call_Sofar.Sofar () Bool)
(declare-fun call_synapse.ite14 () Int)
(declare-fun call_synapse.dirty_s () Int)
(declare-fun call_synapse.ite6 () Int)
(declare-fun call_synapse.flby3 () Int)
(declare-fun invalid_s () Int)
(declare-fun call_synapse.ite2 () Int)
(declare-fun call_synapse.ite () Int)
(declare-fun valid_s () Int)
(declare-fun call_synapse.mem_init_s () Int)
(declare-fun mem_init_s () Int)
(declare-fun call_synapse.ite18 () Int)
(declare-fun call_synapse.flby2 () Int)
(declare-fun call_synapse.invalid_s () Int)
(declare-fun call_synapse.flby4 () Int)
(declare-fun call_synapse.valid_s () Int)
(declare-fun call_synapse.ite9 () Int)
(declare-fun call_synapse.ite11 () Int)
(declare-fun call_synapse.garde_s3 () Bool)
(declare-fun param_init_invalid_s () Int)
(declare-fun flby () Bool)
(define-fun .def_564 () Bool (= call_Sofar.flby call_Sofar.Sofar))
(define-fun .def_559 () Bool (and param_e_s3 param_e_s2))
(define-fun .def_556 () Bool (and param_e_s1 param_e_s2))
(define-fun .def_557 () Bool (and param_e_s1 .def_556))
(define-fun .def_558 () Bool (and param_e_s3 .def_557))
(define-fun .def_560 () Bool (or .def_558 .def_559))
(define-fun .def_561 () Bool (not .def_560))
(define-fun .def_562 () Bool (= call_excludes3.excludes .def_561))
(define-fun .def_554 () Bool (= call_synapse.flby call_synapse.mem_init_s))
(define-fun .def_552 () Bool (= call_synapse.flby4 call_synapse.dirty_s))
(define-fun .def_550 () Bool (= call_synapse.flby3 call_synapse.valid_s))
(define-fun .def_548 () Bool (= call_synapse.flby2 call_synapse.invalid_s))
(define-fun .def_544 () Bool (= call_synapse.ite16 call_synapse.ite17))
(define-fun .def_545 () Bool (or param_e_s2 .def_544))
(define-fun .def_541 () Bool (= call_synapse.ite14 call_synapse.ite17))
(define-fun .def_532 () Bool (not param_e_s2))
(define-fun .def_542 () Bool (or .def_532 .def_541))
(define-fun .def_538 () Bool (= call_synapse.ite10 call_synapse.ite11))
(define-fun .def_539 () Bool (or param_e_s2 .def_538))
(define-fun .def_535 () Bool (= call_synapse.ite8 call_synapse.ite11))
(define-fun .def_536 () Bool (or .def_532 .def_535))
(define-fun .def_531 () Bool (= call_synapse.ite5 call_synapse.ite2))
(define-fun .def_533 () Bool (or .def_531 .def_532))
(define-fun .def_527 () Bool (= call_synapse.ite4 call_synapse.ite5))
(define-fun .def_529 () Bool (or .def_527 param_e_s2))
(define-fun .def_534 () Bool (and .def_529 .def_533))
(define-fun .def_537 () Bool (and .def_534 .def_536))
(define-fun .def_540 () Bool (and .def_537 .def_539))
(define-fun .def_543 () Bool (and .def_540 .def_542))
(define-fun .def_546 () Bool (and .def_543 .def_545))
(define-fun .def_523 () Bool (= call_synapse.ite18 call_synapse.ite17))
(define-fun .def_524 () Bool (or param_e_s1 .def_523))
(define-fun .def_519 () Bool (= call_synapse.ite13 call_synapse.ite18))
(define-fun .def_506 () Bool (not param_e_s1))
(define-fun .def_520 () Bool (or .def_506 .def_519))
(define-fun .def_515 () Bool (= call_synapse.ite12 call_synapse.ite11))
(define-fun .def_516 () Bool (or param_e_s1 .def_515))
(define-fun .def_511 () Bool (= call_synapse.ite7 call_synapse.ite12))
(define-fun .def_512 () Bool (or .def_506 .def_511))
(define-fun .def_505 () Bool (= call_synapse.ite6 call_synapse.ite))
(define-fun .def_507 () Bool (or .def_505 .def_506))
(define-fun .def_501 () Bool (= call_synapse.ite6 call_synapse.ite5))
(define-fun .def_503 () Bool (or .def_501 param_e_s1))
(define-fun .def_508 () Bool (and .def_503 .def_507))
(define-fun .def_513 () Bool (and .def_508 .def_512))
(define-fun .def_517 () Bool (and .def_513 .def_516))
(define-fun .def_521 () Bool (and .def_517 .def_520))
(define-fun .def_525 () Bool (and .def_521 .def_524))
(define-fun .def_497 () Bool (= env call_Sofar.Sofar))
(define-fun .def_494 () Bool (= call_synapse.mem_init_s mem_init_s))
(define-fun .def_491 () Bool (= dirty_s call_synapse.dirty_s))
(define-fun .def_487 () Bool (= valid_s call_synapse.valid_s))
(define-fun .def_483 () Bool (= invalid_s call_synapse.invalid_s))
(define-fun .def_478 () Bool (not env))
(define-fun .def_479 () Bool (or flby .def_478))
(define-fun .def_480 () Bool (= _OK_ .def_479))
(define-fun .def_484 () Bool (and .def_480 .def_483))
(define-fun .def_488 () Bool (and .def_484 .def_487))
(define-fun .def_492 () Bool (and .def_488 .def_491))
(define-fun .def_495 () Bool (and .def_492 .def_494))
(define-fun .def_498 () Bool (and .def_495 .def_497))
(define-fun .def_526 () Bool (and .def_498 .def_525))
(define-fun .def_547 () Bool (and .def_526 .def_546))
(define-fun .def_549 () Bool (and .def_547 .def_548))
(define-fun .def_551 () Bool (and .def_549 .def_550))
(define-fun .def_553 () Bool (and .def_551 .def_552))
(define-fun .def_555 () Bool (and .def_553 .def_554))
(define-fun .def_563 () Bool (and .def_555 .def_562))
(define-fun .def_565 () Bool (and .def_563 .def_564))
(define-fun .def_470 () Bool (<= 0 param_init_invalid_s))
(define-fun .def_472 () Bool (and .def_470 call_excludes3.excludes))
(define-fun .def_474 () Bool (= .def_472 call_Sofar.flby))
(define-fun .def_468 () Bool (= call_synapse.flby4 0))
(define-fun .def_465 () Bool (= call_synapse.flby3 0))
(define-fun .def_462 () Bool (= call_synapse.flby2 call_synapse.mem_init_s))
(define-fun .def_458 () Bool (= param_init_invalid_s call_synapse.flby))
(define-fun .def_452 () Bool (= call_synapse.ite9 0))
(define-fun .def_450 () Bool (not call_synapse.garde_s3))
(define-fun .def_453 () Bool (or .def_450 .def_452))
(define-fun .def_448 () Bool (= call_synapse.ite15 1))
(define-fun .def_451 () Bool (or .def_448 .def_450))
(define-fun .def_454 () Bool (and .def_451 .def_453))
(define-fun .def_444 () Bool (= call_synapse.ite8 0))
(define-fun .def_441 () Bool (not call_synapse.garde_s2))
(define-fun .def_445 () Bool (or .def_441 .def_444))
(define-fun .def_439 () Bool (= call_synapse.ite14 1))
(define-fun .def_442 () Bool (or .def_439 .def_441))
(define-fun .def_446 () Bool (and .def_442 .def_445))
(define-fun .def_435 () Bool (= call_synapse.ite13 0))
(define-fun .def_433 () Bool (not call_synapse.garde_s1))
(define-fun .def_436 () Bool (or .def_433 .def_435))
(define-fun .def_427 () Bool (= call_synapse.ite15 call_synapse.ite16))
(define-fun .def_418 () Bool (not param_e_s3))
(define-fun .def_428 () Bool (or .def_418 .def_427))
(define-fun .def_422 () Bool (= call_synapse.ite3 call_synapse.ite4))
(define-fun .def_423 () Bool (or .def_418 .def_422))
(define-fun .def_416 () Bool (= call_synapse.ite9 call_synapse.ite10))
(define-fun .def_419 () Bool (or .def_416 .def_418))
(define-fun .def_424 () Bool (and .def_419 .def_423))
(define-fun .def_429 () Bool (and .def_424 .def_428))
(define-fun .def_431 () Bool (and .def_429 flby))
(define-fun .def_437 () Bool (and .def_431 .def_436))
(define-fun .def_447 () Bool (and .def_437 .def_446))
(define-fun .def_455 () Bool (and .def_447 .def_454))
(define-fun .def_459 () Bool (and .def_455 .def_458))
(define-fun .def_463 () Bool (and .def_459 .def_462))
(define-fun .def_466 () Bool (and .def_463 .def_465))
(define-fun .def_469 () Bool (and .def_466 .def_468))
(define-fun .def_475 () Bool (and .def_469 .def_474))
(define-fun .def_566 () Bool (and .def_475 .def_565))
(assert .def_566)
